2389864
45,54,25,10,65,42,21,51,32,56,9,13,17,49,61,38,50,34,67,52,14,57,8,16,58,23,47,3,15,20,62,43,30,27,35,36,7,26,1,64,44,19,60,11,46,12,53,18,28,4,48,22,59,29,5,37,2,0,39,31,55,41,24,40,63,66,6,33
